nNurses = 109;
nHours = 40;
minHours = 6;
maxHours = 20;
maxConsec = 6;
maxPresence = 27;
demand = [33, 29, 29, 25, 24, 19, 18, 15, 12, 7, 6, 10, 11, 6, 10, 15, 17, 19, 19, 21, 24, 21, 22, 24, 26, 29, 29, 27, 28, 32, 33, 29, 32, 37, 32, 28, 25, 28, 28, 33];
